webassembly/ejemplos_dzn/10/folder10_json_33.dzn
TERM = { '.', 's(2)', 's(5)', 's(4)', 'in_1', 'local_0', 'local_1', 'in_2', 'in_3', 's(6)', 's(1)', 's(0)', 's(3)', 'in_0'};
null = '.';
s = 10;
n = 9;
ndeps = 3;
max_registers_sz = 3;
NR = 0;
registers = [| |];
dependencies = [|'i32.load16_s_1', 'i32.store16_3', |'i32.store16_3', 'i32.load8_u_7', |'i32.store16_3', 'i32.load16_s_9'|];
GET_ENUM = { GET1, GET2, GET3};
SET_ENUM = { SET1, SET2, SET3};
TEE_ENUM = { TEE1, TEE2, TEE3};
N = 10;
OP = { 'i32.sub_0', 'i32.load16_s_1', 'i32.const_0', 'i32.store16_3', 'i32.sub_1', 'i32.sub_2', 'i32.load8_u_7', 'i32.load16_s_9', 'local.get_0', 'local.get_1' };
in_ops = [2, 1, 0, 2, 2, 2, 1, 1, 0, 0 ];
out_ops = [1, 1, 1, 0, 1, 1, 1, 1, 1, 1 ];
in1 = ['in_0', 's(0)', '.', 's(6)', 'in_2', 'local_1', 's(3)', 'local_0', '.', '.' ];
in2 = ['in_1', '.', '.', 's(1)', 'in_3', 's(2)', '.', '.', '.', '.' ];
in3 = ['.', '.', '.', '.', '.', '.', '.', '.', '.', '.' ];
out1 = ['s(0)', 's(1)', 's(6)', '.', 's(2)', 's(3)', 's(4)', 's(5)', 'local_0', 'local_1' ];
out2 = ['.', '.', '.', '.', '.', '.', '.', '.', '.', '.' ];
out3 = ['.', '.', '.', '.', '.', '.', '.', '.', '.', '.' ];
comm = [false, false, false, false, false, false, false, false, false, false ];
gas = [1, 1, 1, 1, 1, 1, 1, 1, 1, 1 ];
sz = [1, 1, 1, 1, 1, 1, 1, 1, 1, 1 ];
stor = [false, false, false, true, false, false, false, false, false, false ];
lb = [ 1, 1, 1, 1, 1, 1, 1, 1, 1, 1 ];
ub = [ 10, 10, 10, 10, 10, 10, 10, 10, 10, 10 ];
startstack = [ 'in_0', 'in_1', 'in_2', 'in_3', null, null, null, null, null ];
endstack = [ 's(5)', 's(4)', null, null, null, null, null, null, null ];
